coords = array2d(1..26, 1..2, [470, 591, 969, 316, 763, 724, 736, 882, 347,
    394, 120, 670, 670, 272, 99, 605, 954, 457, 931, 933, 896, 507,
    724, 163, 784, 501, 747, 518, 832, 11, 242, 674, 869, 758, 87,
    595, 50, 98, 905, 103, 699, 389, 710, 160, 155, 110, 81, 644, 707,
    288, 813, 894]);

n = 26;

